'hugeuniform120'
150 100 100
150
147
147
146
145
144
143
142
141
139
138
135
133
133
133
130
126
123
116
114
114
111
111
109
108
107
107
105
105
103
100
99
96
95
93
92
91
88
87
87
86
85
83
83
80
79
78
73
73
72
72
71
71
69
66
65
63
62
61
61
60
57
53
47
42
42
41
40
39
39
39
39
37
34
34
33
32
31
30
23
23
23
22
21
20
20
20
19
19
18
18
15
13
13
9
8
6
6
2
1
